Route #1: 67 36 32 6 58 10 24 18 28 42
Route #2: 25 3 11 39 23 55 63
Route #3: 50 40 38 53 19
Route #4: 65 43 66 13 46 7
Route #5: 12 45 16 54 62 14 5 27
Route #6: 56 1 4 60 47 35 31
Route #7: 17 20 9 48 34 44 59 30 21 64
Route #8: 49 22 2 8 41 37
Route #9: 29 57 51 61 26 52 33 15
Cost 1276
Time 0.263831
